job_count = 40 ;
duration = [|20, 16, 14, 14, 18, 12, 4, 7|3, 13, 12, 2, 9, 13, 7, 10|16, 2, 4, 18, 18, 7, 9, 14|3, 16, 3, 8, 15, 8, 15, 11|20, 2, 2, 13, 12, 7, 13, 3|4, 16, 15, 9, 6, 13, 2, 13|2, 22, 14, 14, 9, 8, 7, 8|5, 7, 21, 17, 14, 10, 8, 2|11, 15, 18, 6, 12, 10, 2, 4|24, 19, 7, 17, 15, 5, 6, 7|6, 9, 16, 18, 9, 6, 3, 10|24, 7, 12, 5, 17, 13, 3, 7|20, 16, 2, 10, 15, 4, 7, 9|9, 18, 21, 15, 15, 15, 11, 13|7, 3, 20, 14, 12, 13, 13, 12|14, 22, 9, 2, 2, 16, 2, 11|20, 21, 18, 8, 6, 2, 3, 6|4, 10, 20, 6, 2, 17, 4, 3|14, 3, 12, 8, 15, 6, 2, 9|8, 16, 19, 12, 8, 12, 2, 9|24, 17, 17, 6, 15, 6, 2, 7|10, 23, 5, 14, 9, 5, 12, 5|24, 14, 8, 8, 6, 15, 10, 9|9, 21, 12, 9, 13, 8, 9, 9|19, 19, 15, 7, 9, 8, 6, 3|17, 23, 2, 8, 15, 13, 3, 3|5, 21, 15, 19, 14, 2, 7, 8|14, 21, 14, 19, 9, 6, 8, 12|14, 13, 5, 4, 17, 3, 9, 4|2, 17, 9, 12, 13, 3, 7, 14|4, 5, 14, 4, 6, 13, 13, 8|8, 2, 6, 3, 12, 3, 2, 5|17, 23, 18, 11, 3, 10, 10, 6|9, 20, 21, 10, 6, 3, 9, 7|19, 7, 7, 12, 8, 7, 4, 6|7, 2, 12, 9, 13, 8, 5, 12|17, 18, 14, 16, 13, 2, 4, 12|5, 11, 14, 7, 15, 7, 7, 12|4, 23, 17, 5, 5, 6, 12, 7|13, 12, 7, 14, 4, 4, 4, 5|] ;
machine_count = 8 ;
cost = [|20, 30, 25, 31, 39, 39, 38, 31|31, 19, 29, 37, 25, 37, 44, 41|31, 20, 35, 27, 31, 25, 41, 30|21, 17, 29, 29, 38, 24, 30, 32|22, 19, 30, 34, 24, 23, 32, 29|24, 24, 18, 36, 28, 31, 38, 52|29, 22, 35, 30, 39, 30, 35, 35|31, 22, 19, 32, 26, 23, 31, 37|26, 17, 19, 37, 34, 38, 35, 45|26, 31, 25, 37, 25, 40, 41, 32|30, 27, 25, 36, 26, 27, 42, 40|23, 20, 28, 36, 31, 34, 47, 45|28, 31, 27, 33, 36, 42, 32, 51|16, 18, 31, 26, 40, 30, 31, 45|25, 31, 29, 32, 35, 35, 31, 29|21, 32, 34, 24, 39, 41, 31, 42|16, 33, 23, 20, 35, 35, 39, 38|18, 26, 34, 22, 37, 38, 34, 33|25, 32, 25, 26, 25, 35, 27, 32|23, 29, 35, 33, 22, 33, 36, 39|28, 25, 31, 36, 32, 33, 26, 40|22, 22, 25, 32, 34, 39, 27, 37|20, 26, 32, 24, 25, 33, 44, 30|30, 30, 26, 29, 21, 37, 34, 48|31, 30, 22, 22, 36, 31, 47, 30|17, 22, 34, 37, 39, 42, 47, 43|22, 32, 24, 29, 35, 33, 39, 46|23, 24, 26, 25, 23, 41, 36, 38|26, 25, 25, 27, 24, 42, 35, 52|23, 30, 29, 33, 26, 30, 35, 28|30, 24, 25, 30, 28, 31, 37, 29|17, 32, 33, 24, 25, 37, 32, 49|17, 19, 18, 21, 41, 38, 46, 35|29, 26, 33, 31, 23, 34, 45, 45|28, 33, 21, 34, 26, 23, 27, 28|27, 17, 22, 30, 30, 40, 46, 53|19, 24, 27, 36, 27, 41, 27, 45|17, 19, 26, 20, 23, 31, 28, 41|23, 23, 34, 29, 39, 27, 28, 45|22, 33, 18, 24, 26, 32, 40, 48|] ;
deadline = [33, 33, 33, 33, 33, 33, 33, 33, 33, 33, 33, 33, 33, 33, 33, 33, 33, 33, 33, 33, 33, 33, 33, 33, 33, 33, 33, 33, 33, 33, 33, 33, 33, 33, 33, 33, 33, 33, 33, 33] ;
release = [0, 0, 0, 0, 0, 0, 0, 0, 0, 0, 0, 0, 0, 0, 0, 0, 0, 0, 0, 0, 0, 0, 0, 0, 0, 0, 0, 0, 0, 0, 0, 0, 0, 0, 0, 0, 0, 0, 0, 0] ;
resource = [|8, 8, 8, 8, 8, 8, 8, 8|6, 6, 6, 6, 6, 6, 6, 6|9, 9, 9, 9, 9, 9, 9, 9|7, 7, 7, 7, 7, 7, 7, 7|6, 6, 6, 6, 6, 6, 6, 6|2, 2, 2, 2, 2, 2, 2, 2|1, 1, 1, 1, 1, 1, 1, 1|9, 9, 9, 9, 9, 9, 9, 9|9, 9, 9, 9, 9, 9, 9, 9|5, 5, 5, 5, 5, 5, 5, 5|3, 3, 3, 3, 3, 3, 3, 3|7, 7, 7, 7, 7, 7, 7, 7|9, 9, 9, 9, 9, 9, 9, 9|3, 3, 3, 3, 3, 3, 3, 3|9, 9, 9, 9, 9, 9, 9, 9|4, 4, 4, 4, 4, 4, 4, 4|2, 2, 2, 2, 2, 2, 2, 2|2, 2, 2, 2, 2, 2, 2, 2|6, 6, 6, 6, 6, 6, 6, 6|5, 5, 5, 5, 5, 5, 5, 5|9, 9, 9, 9, 9, 9, 9, 9|7, 7, 7, 7, 7, 7, 7, 7|7, 7, 7, 7, 7, 7, 7, 7|7, 7, 7, 7, 7, 7, 7, 7|3, 3, 3, 3, 3, 3, 3, 3|4, 4, 4, 4, 4, 4, 4, 4|5, 5, 5, 5, 5, 5, 5, 5|5, 5, 5, 5, 5, 5, 5, 5|8, 8, 8, 8, 8, 8, 8, 8|7, 7, 7, 7, 7, 7, 7, 7|8, 8, 8, 8, 8, 8, 8, 8|6, 6, 6, 6, 6, 6, 6, 6|4, 4, 4, 4, 4, 4, 4, 4|7, 7, 7, 7, 7, 7, 7, 7|2, 2, 2, 2, 2, 2, 2, 2|9, 9, 9, 9, 9, 9, 9, 9|8, 8, 8, 8, 8, 8, 8, 8|2, 2, 2, 2, 2, 2, 2, 2|7, 7, 7, 7, 7, 7, 7, 7|7, 7, 7, 7, 7, 7, 7, 7|] ;
capacities = [10, 10, 10, 10, 10, 10, 10, 10] ;
